db/inputs/37110223244441847312861254731692331820.smt2
(set-logic QF_FP)
(declare-const x0 (_ FloatingPoint 8 24))
(declare-const x1 (_ FloatingPoint 8 24))
(declare-const x2 (_ FloatingPoint 8 24))
(declare-const x3 (_ FloatingPoint 8 24))
(declare-const x4 (_ FloatingPoint 8 24))
(declare-const x5 (_ FloatingPoint 8 24))
(declare-const x6 (_ FloatingPoint 8 24))
(declare-const x7 (_ FloatingPoint 8 24))
(declare-const x8 (_ FloatingPoint 8 24))
(declare-const x9 (_ FloatingPoint 8 24))
(declare-const x10 (_ FloatingPoint 8 24))
(declare-const x11 (_ FloatingPoint 8 24))
(declare-const x12 (_ FloatingPoint 8 24))
(declare-const x13 (_ FloatingPoint 8 24))
(declare-const x14 (_ FloatingPoint 8 24))
(declare-const x15 (_ FloatingPoint 8 24))
(declare-const x16 (_ FloatingPoint 8 24))
(assert (fp.leq (fp.neg (fp.div RNE (fp.add RNE x4 x0) (fp.neg x14))) (fp.mul RNE (fp.div RNE (fp.add RNE x15 x12) (fp.add RNE x10 x5)) (fp.mul RNE (fp.div RNE x12 x8) (fp.add RNE x9 x2)))))
(assert (fp.gt (fp.sub RNE (fp.neg (fp.add RNE x5 x3)) (fp.sub RNE (fp.neg x12) (fp.div RNE x7 x2))) (fp.neg (fp.sub RNE (fp.mul RNE x7 x11) (fp.div RNE x15 x14)))))
(assert (fp.lt (fp.add RNE (fp.neg (fp.add RNE x0 x9)) (fp.neg (fp.neg x3))) (fp.sub RNE (fp.add RNE (fp.sub RNE x13 x8) (fp.add RNE x10 x6)) (fp.neg (fp.add RNE x10 x13)))))
(assert (fp.leq (fp.div RNE (fp.add RNE (fp.sub RNE x4 x2) (fp.div RNE x3 x11)) (fp.add RNE (fp.mul RNE x12 x7) (fp.div RNE x0 x15))) (fp.mul RNE (fp.sub RNE (fp.neg x8) (fp.add RNE x8 x11)) (fp.mul RNE (fp.mul RNE x2 x13) (fp.add RNE x12 x6)))))
(assert (fp.leq (fp.sub RNE (fp.sub RNE (fp.neg x12) (fp.div RNE x4 x9)) (fp.sub RNE (fp.add RNE x6 x5) (fp.sub RNE x8 x3))) (fp.div RNE (fp.mul RNE (fp.mul RNE x11 x11) (fp.add RNE x2 x8)) (fp.div RNE (fp.mul RNE x7 x4) (fp.div RNE x14 x15)))))
(assert (fp.lt (fp.mul RNE (fp.neg (fp.div RNE x15 x14)) (fp.sub RNE (fp.neg x9) (fp.add RNE x7 x7))) (fp.sub RNE (fp.div RNE (fp.neg x3) (fp.mul RNE x2 x9)) (fp.neg (fp.div RNE x13 x8)))))
(assert (fp.gt (fp.mul RNE (fp.div RNE (fp.mul RNE x3 x11) (fp.neg x3)) (fp.mul RNE (fp.add RNE x3 x15) (fp.add RNE x14 x2))) (fp.mul RNE (fp.add RNE (fp.div RNE x10 x5) (fp.sub RNE x10 x2)) (fp.sub RNE (fp.add RNE x4 x6) (fp.add RNE x10 x13)))))
(assert (fp.eq (fp.sub RNE (fp.neg (fp.mul RNE x7 x0)) (fp.neg (fp.sub RNE x13 x13))) (fp.mul RNE (fp.sub RNE (fp.neg x10) (fp.mul RNE x14 x13)) (fp.neg (fp.mul RNE x2 x10)))))
(assert (fp.eq (fp.neg (fp.add RNE (fp.add RNE x11 x13) (fp.add RNE x3 x0))) (fp.sub RNE (fp.neg (fp.div RNE x1 x7)) (fp.neg (fp.div RNE x10 x14)))))
(assert (fp.eq (fp.mul RNE (fp.add RNE (fp.neg x2) (fp.sub RNE x9 x9)) (fp.neg (fp.sub RNE x15 x5))) (fp.sub RNE (fp.div RNE (fp.div RNE x11 x11) (fp.mul RNE x8 x14)) (fp.neg (fp.mul RNE x9 x12)))))
(assert (fp.eq (fp.sub RNE (fp.mul RNE (fp.add RNE x14 x1) (fp.add RNE x5 x16)) (fp.mul RNE (fp.div RNE x8 x16) (fp.add RNE x8 x4))) (fp.mul RNE (fp.mul RNE (fp.add RNE x7 x13) (fp.neg x6)) (fp.sub RNE (fp.div RNE x1 x4) (fp.div RNE x0 x1)))))
(assert (fp.leq (fp.mul RNE (fp.add RNE (fp.mul RNE x16 x5) (fp.div RNE x5 x7)) (fp.add RNE (fp.div RNE x3 x3) (fp.add RNE x8 x6))) (fp.sub RNE (fp.add RNE (fp.sub RNE x9 x12) (fp.mul RNE x4 x16)) (fp.add RNE (fp.div RNE x14 x5) (fp.div RNE x13 x5)))))
(assert (fp.geq (fp.div RNE (fp.mul RNE (fp.add RNE x11 x1) (fp.mul RNE x16 x3)) (fp.div RNE (fp.mul RNE x6 x16) (fp.mul RNE x15 x16))) (fp.sub RNE (fp.sub RNE (fp.div RNE x2 x4) (fp.sub RNE x13 x15)) (fp.add RNE (fp.sub RNE x7 x13) (fp.mul RNE x12 x8)))))
(assert (fp.leq (fp.div RNE (fp.neg (fp.sub RNE x14 x10)) (fp.add RNE (fp.sub RNE x3 x3) (fp.div RNE x2 x1))) (fp.mul RNE (fp.div RNE (fp.div RNE x7 x9) (fp.neg x16)) (fp.mul RNE (fp.div RNE x4 x15) (fp.sub RNE x6 x10)))))
(assert (fp.lt (fp.sub RNE (fp.sub RNE (fp.neg x15) (fp.neg x12)) (fp.mul RNE (fp.mul RNE x9 x16) (fp.neg x8))) (fp.neg (fp.neg (fp.add RNE x5 x15)))))
(assert (fp.geq (fp.sub RNE (fp.sub RNE (fp.mul RNE x4 x1) (fp.add RNE x6 x8)) (fp.sub RNE (fp.add RNE x5 x8) (fp.neg x12))) (fp.div RNE (fp.mul RNE (fp.neg x7) (fp.neg x13)) (fp.mul RNE (fp.neg x4) (fp.add RNE x12 x11)))))
(assert (fp.geq (fp.neg (fp.neg (fp.div RNE x14 x4))) (fp.div RNE (fp.neg (fp.mul RNE x3 x1)) (fp.neg (fp.add RNE x8 x1)))))
(assert (fp.lt (fp.sub RNE (fp.div RNE (fp.div RNE x8 x0) (fp.add RNE x9 x9)) (fp.sub RNE (fp.mul RNE x11 x10) (fp.neg x14))) (fp.mul RNE (fp.sub RNE (fp.mul RNE x10 x6) (fp.sub RNE x12 x16)) (fp.mul RNE (fp.add RNE x4 x7) (fp.add RNE x6 x14)))))
(assert (fp.eq (fp.mul RNE (fp.add RNE (fp.sub RNE x7 x7) (fp.sub RNE x13 x12)) (fp.neg (fp.neg x11))) (fp.sub RNE (fp.neg (fp.mul RNE x15 x8)) (fp.mul RNE (fp.add RNE x1 x6) (fp.mul RNE x11 x8)))))
(check-sat)
