db/data/37110223244441847312861254731692331820.z3.out
-------------------
2500.104213014
